(set-info :smt-lib-version 2.6)
(set-logic QF_S)
(set-info :source |
Generated by: Hongjian Jiang, Oliver Markgraf, Daniel Stan, Anthony W. Lin, Philipp Ruemmer
Generated on: 2025-04-11
Application: Using String Solvers to solve RMC problems encoded as CHC over Strings
Target solver: cvc5, OSTRICH, Z3, Z3alpha, Z3-noodler
Time limit: 60.0
Benchmarks are extracted by running HornStr https://arg-git.informatik.uni-kl.de/pub/string-chc-lib on all benchmarks
provided in the repository and gathering the string queries sent to the string solvers.
|)
(declare-fun varout () String)
(assert (let ((a!1 (re.union (re.union (re.union (str.to_re "E") (str.to_re "O"))
                               (str.to_re "1"))
                     (str.to_re "W"))))
(let ((a!2 (re.* (re.union (re.union a!1 (str.to_re "0")) (str.to_re "B")))))
  (str.in_re varout a!2))))
(declare-fun varin () String)
(assert (let ((a!1 (re.union (re.union (re.union (str.to_re "E") (str.to_re "O"))
                               (str.to_re "1"))
                     (str.to_re "W"))))
(let ((a!2 (re.* (re.union (re.union a!1 (str.to_re "0")) (str.to_re "B")))))
  (str.in_re varin a!2))))
(declare-fun X () String)
(declare-fun isin () Bool)
(declare-fun isout () Bool)
(assert (let ((a!1 (re.++ (re.* (re.++ (str.to_re "W") (str.to_re "W")))
                  (re.++ (str.to_re "W") (str.to_re "W"))))
      (a!5 (re.union (str.to_re "")
                     (re.++ (str.to_re "0") (re.* (str.to_re "0")))))
      (a!12 (re.union (str.to_re "")
                      (re.++ (str.to_re "B") (re.* (str.to_re "B")))))
      (a!14 (re.union (str.to_re "")
                      (re.++ (str.to_re "1") (re.* (str.to_re "1"))))))
(let ((a!2 (re.union (re.++ (str.to_re "W") (str.to_re "W"))
                     (re.++ (re.++ (str.to_re "W") (str.to_re "W")) a!1)))
      (a!7 (re.++ (str.to_re "W") (re.++ (re.* (str.to_re "0")) a!5))))
(let ((a!3 (re.++ (re.* (re.++ (str.to_re "W") (str.to_re "W"))) a!2))
      (a!8 (re.++ (re.* (re.++ (str.to_re "W") (str.to_re "W"))) a!7)))
(let ((a!4 (re.union (re.union (re.++ (str.to_re "O") (str.to_re "W"))
                               (str.to_re "E"))
                     (re.++ (re.++ (str.to_re "O") (str.to_re "W")) a!3)))
      (a!9 (re.union a!7 (re.++ (re.++ (str.to_re "W") (str.to_re "W")) a!8))))
(let ((a!6 (re.++ a!4 (re.++ (re.* (str.to_re "0")) a!5)))
      (a!10 (re.++ (re.* (re.++ (str.to_re "W") (str.to_re "W"))) a!9)))
(let ((a!11 (re.union a!6 (re.++ (re.++ (str.to_re "E") (str.to_re "W")) a!10))))
(let ((a!13 (re.++ a!11 (re.++ (re.* (str.to_re "B")) a!12))))
(let ((a!15 (re.++ a!13 (re.++ (re.* (str.to_re "1")) a!14))))
  (and (str.in_re X (re.union a!13 a!15)) (not isin) (= X varout) isout))))))))))
(push 1)
(assert (str.in_re varout re.none))
(set-info :status unknown)
(check-sat)
(pop 1)
(push 1)
(assert (let ((a!1 (re.union (re.union (re.union (str.to_re "E") (str.to_re "1"))
                               (str.to_re "W"))
                     (str.to_re "0")))
      (a!5 (re.union (re.union (re.union (str.to_re "E") (str.to_re "O"))
                               (str.to_re "1"))
                     (str.to_re "W")))
      (a!9 (re.union (re.union (re.union (str.to_re "E") (str.to_re "O"))
                               (str.to_re "W"))
                     (str.to_re "0"))))
(let ((a!2 (re.++ (re.* (re.union a!1 (str.to_re "B"))) (str.to_re "O"))))
(let ((a!3 (re.union (str.to_re "O") (re.++ (re.union a!1 (str.to_re "B")) a!2))))
(let ((a!4 (re.++ (re.* (re.union a!1 (str.to_re "B"))) a!3)))
(let ((a!6 (re.++ (re.* (re.union (str.to_re "0") (re.++ a!5 a!4)))
                  (str.to_re "B"))))
(let ((a!7 (re.union (str.to_re "B")
                     (re.++ (re.union (str.to_re "0") (re.++ a!5 a!4)) a!6))))
(let ((a!8 (re.++ (re.* (re.union (str.to_re "0") (re.++ a!5 a!4))) a!7)))
(let ((a!10 (re.++ (re.++ (re.union a!9 (str.to_re "B")) a!4) a!8)))
(let ((a!11 (re.++ (re.union (str.to_re "1") a!10)
                   (re.* (re.union (str.to_re "1") a!10)))))
(let ((a!12 (re.++ (re.* (re.union (str.to_re "1") a!10))
                   (re.union (str.to_re "") a!11))))
  (str.in_re varout (re.++ (re.++ a!4 a!8) a!12)))))))))))))
(set-info :status unknown)
(check-sat)
(pop 1)
(push 1)
(assert (let ((a!1 (re.union (re.union (re.union (str.to_re "1") (str.to_re "W"))
                               (str.to_re "0"))
                     (str.to_re "B")))
      (a!3 (re.union (re.union (re.union (str.to_re "E") (str.to_re "O"))
                               (str.to_re "1"))
                     (str.to_re "0")))
      (a!12 (re.union (re.union (re.union (str.to_re "E") (str.to_re "O"))
                                (str.to_re "1"))
                      (str.to_re "W")))
      (a!18 (re.union (re.union (re.union (str.to_re "E") (str.to_re "O"))
                                (str.to_re "W"))
                      (str.to_re "0"))))
(let ((a!2 (re.union (str.to_re "E")
                     (re.++ a!1 (re.++ (re.* a!1) (str.to_re "E")))))
      (a!7 (re.union (str.to_re "O")
                     (re.++ a!1 (re.++ (re.* a!1) (str.to_re "O"))))))
(let ((a!4 (re.* (re.++ (re.union a!3 (str.to_re "B")) (re.++ (re.* a!1) a!2))))
      (a!13 (re.union (str.to_re "0") (re.++ a!12 (re.++ (re.* a!1) a!7)))))
(let ((a!5 (re.++ (re.++ (re.union a!3 (str.to_re "B")) (re.++ (re.* a!1) a!2))
                  (re.++ a!4 (str.to_re "W"))))
      (a!8 (re.++ a!4
                  (re.++ (re.union a!3 (str.to_re "B")) (re.++ (re.* a!1) a!7)))))
(let ((a!6 (re.++ (re.++ (re.* a!1) a!2)
                  (re.++ a!4 (re.union (str.to_re "W") a!5))))
      (a!9 (re.++ (re.++ (re.union a!3 (str.to_re "B")) (re.++ (re.* a!1) a!2))
                  a!8))
      (a!15 (re.++ (re.++ a!12 (re.++ (re.* a!1) a!2))
                   (re.++ a!4 (re.union (str.to_re "W") a!5))))
      (a!19 (re.++ (re.++ (re.union a!18 (str.to_re "B"))
                          (re.++ (re.* a!1) a!2))
                   (re.++ a!4 (re.union (str.to_re "W") a!5)))))
(let ((a!10 (re.union (re.++ (re.union a!3 (str.to_re "B"))
                             (re.++ (re.* a!1) a!7))
                      a!9)))
(let ((a!11 (re.union (re.++ (re.* a!1) a!7)
                      (re.++ (re.++ (re.* a!1) a!2) (re.++ a!4 a!10))))
      (a!14 (re.++ (re.++ a!12 (re.++ (re.* a!1) a!2)) (re.++ a!4 a!10)))
      (a!20 (re.++ (re.++ (re.union a!18 (str.to_re "B"))
                          (re.++ (re.* a!1) a!2))
                   (re.++ a!4 a!10))))
(let ((a!16 (re.++ (re.union a!13 a!14)
                   (re.++ (re.* (re.union a!13 a!14))
                          (re.union (str.to_re "B") a!15))))
      (a!21 (re.union (re.++ (re.union a!18 (str.to_re "B"))
                             (re.++ (re.* a!1) a!7))
                      a!20)))
(let ((a!17 (re.++ (re.* (re.union a!13 a!14))
                   (re.union (re.union (str.to_re "B") a!15) a!16))))
(let ((a!22 (re.* (re.union (re.union (str.to_re "1") a!19) (re.++ a!21 a!17)))))
(let ((a!23 (re.++ (re.union (re.union (str.to_re "1") a!19) (re.++ a!21 a!17))
                   a!22)))
(let ((a!24 (re.++ (re.union a!6 (re.++ a!11 a!17))
                   (re.++ a!22 (re.union (str.to_re "") a!23)))))
  (str.in_re varout a!24))))))))))))))
(set-info :status unknown)
(check-sat)
(pop 1)
(push 1)
(assert (let ((a!1 (re.union (re.union (re.union (str.to_re "1") (str.to_re "W"))
                               (str.to_re "0"))
                     (str.to_re "B")))
      (a!3 (re.union (re.union (re.union (str.to_re "E") (str.to_re "O"))
                               (str.to_re "1"))
                     (str.to_re "0")))
      (a!12 (re.union (re.union (re.union (str.to_re "E") (str.to_re "O"))
                                (str.to_re "1"))
                      (str.to_re "W")))
      (a!18 (re.union (re.union (re.union (str.to_re "E") (str.to_re "O"))
                                (str.to_re "W"))
                      (str.to_re "B")))
      (a!31 (re.union (re.union (re.union (str.to_re "E") (str.to_re "O"))
                                (str.to_re "W"))
                      (str.to_re "0"))))
(let ((a!2 (re.union (str.to_re "E")
                     (re.++ a!1 (re.++ (re.* a!1) (str.to_re "E")))))
      (a!7 (re.union (str.to_re "O")
                     (re.++ a!1 (re.++ (re.* a!1) (str.to_re "O"))))))
(let ((a!4 (re.* (re.++ (re.union a!3 (str.to_re "B")) (re.++ (re.* a!1) a!2))))
      (a!13 (re.union (str.to_re "0") (re.++ a!12 (re.++ (re.* a!1) a!7)))))
(let ((a!5 (re.++ (re.++ (re.union a!3 (str.to_re "B")) (re.++ (re.* a!1) a!2))
                  (re.++ a!4 (str.to_re "W"))))
      (a!8 (re.++ a!4
                  (re.++ (re.union a!3 (str.to_re "B")) (re.++ (re.* a!1) a!7)))))
(let ((a!6 (re.++ (re.++ (re.* a!1) a!2)
                  (re.++ a!4 (re.union (str.to_re "W") a!5))))
      (a!9 (re.++ (re.++ (re.union a!3 (str.to_re "B")) (re.++ (re.* a!1) a!2))
                  a!8))
      (a!15 (re.++ (re.++ a!12 (re.++ (re.* a!1) a!2))
                   (re.++ a!4 (re.union (str.to_re "W") a!5))))
      (a!19 (re.++ (re.++ a!18 (re.++ (re.* a!1) a!2))
                   (re.++ a!4 (re.union (str.to_re "W") a!5))))
      (a!35 (re.++ (re.++ (re.union a!31 (str.to_re "B"))
                          (re.++ (re.* a!1) a!2))
                   (re.++ a!4 (re.union (str.to_re "W") a!5)))))
(let ((a!10 (re.union (re.++ (re.union a!3 (str.to_re "B"))
                             (re.++ (re.* a!1) a!7))
                      a!9)))
(let ((a!11 (re.union (re.++ (re.* a!1) a!7)
                      (re.++ (re.++ (re.* a!1) a!2) (re.++ a!4 a!10))))
      (a!14 (re.++ (re.++ a!12 (re.++ (re.* a!1) a!2)) (re.++ a!4 a!10)))
      (a!20 (re.++ (re.++ a!18 (re.++ (re.* a!1) a!2)) (re.++ a!4 a!10)))
      (a!32 (re.++ (re.++ (re.union a!31 (str.to_re "B"))
                          (re.++ (re.* a!1) a!2))
                   (re.++ a!4 a!10))))
(let ((a!16 (re.++ (re.union a!13 a!14)
                   (re.++ (re.* (re.union a!13 a!14)) a!15)))
      (a!21 (re.union (re.++ a!18 (re.++ (re.* a!1) a!7)) a!20))
      (a!26 (re.++ (re.union a!13 a!14)
                   (re.++ (re.* (re.union a!13 a!14)) (str.to_re "B"))))
      (a!33 (re.union (re.++ (re.union a!31 (str.to_re "B"))
                             (re.++ (re.* a!1) a!7))
                      a!32)))
(let ((a!17 (re.++ a!11
                   (re.++ (re.* (re.union a!13 a!14)) (re.union a!15 a!16))))
      (a!22 (re.++ a!21
                   (re.++ (re.* (re.union a!13 a!14)) (re.union a!15 a!16))))
      (a!27 (re.++ a!11
                   (re.++ (re.* (re.union a!13 a!14))
                          (re.union (str.to_re "B") a!26))))
      (a!28 (re.++ a!21
                   (re.++ (re.* (re.union a!13 a!14))
                          (re.union (str.to_re "B") a!26))))
      (a!34 (re.++ a!33
                   (re.++ (re.* (re.union a!13 a!14))
                          (re.union (str.to_re "B") a!26))))
      (a!36 (re.++ a!33
                   (re.++ (re.* (re.union a!13 a!14)) (re.union a!15 a!16)))))
(let ((a!23 (re.* (re.union (re.union (str.to_re "0") a!19) a!22))))
(let ((a!24 (re.++ (re.union (re.union (str.to_re "0") a!19) a!22) a!23))
      (a!29 (re.++ (re.union (re.union (str.to_re "0") a!19) a!22)
                   (re.++ a!23 (re.union (str.to_re "1") a!28)))))
(let ((a!25 (re.++ (re.union a!6 a!17)
                   (re.++ a!23 (re.union (str.to_re "") a!24))))
      (a!30 (re.++ a!23 (re.union (re.union (str.to_re "1") a!28) a!29)))
      (a!38 (re.++ (re.union a!35 a!36)
                   (re.++ a!23 (re.union (str.to_re "") a!24)))))
(let ((a!37 (re.union (re.union (str.to_re "1") a!34)
                      (re.++ (re.union a!35 a!36) a!30))))
(let ((a!39 (re.++ a!37 (re.++ (re.* a!37) (re.union (str.to_re "") a!38)))))
(let ((a!40 (re.++ (re.* a!37) (re.union (re.union (str.to_re "") a!38) a!39))))
(let ((a!41 (re.++ (re.union a!27 (re.++ (re.union a!6 a!17) a!30)) a!40)))
  (str.in_re varout (re.union a!25 a!41)))))))))))))))))))
(set-info :status unknown)
(check-sat)
(pop 1)
